# Solution for model count
# Objective value = 9
z#1 0
z#2 1
z#3 0
z#4 0
z#5 1
z#6 1
z#7 0
z#8 0
z#9 1
z#10 1
z#11 0
z#12 0
z#13 0
z#14 1
z#15 0
z#16 1
z#17 1
z#18 0
z#19 0
z#20 0
z#21 0
z#22 0
z#23 1
z#24 0
x#24 0
x#23 2956
x#22 0
x#21 0
x#20 0
x#19 0
x#18 0
x#17 2065
x#16 250
x#15 0
x#14 1321
x#13 0
x#12 0
x#11 0
x#10 948
x#9 360
x#8 0
x#7 0
x#6 921
x#5 68
x#4 0
x#3 0
x#2 1111
x#1 0
